c strEdges: 125  randomEdges: 504 
c degrees:  1  2 
c girth: Inf max: -43.604516  
c Hgirth mixed MAXCUT instance
c generated from an undirected graph
c to solve unweighted MaxCut
p cnf 140 1258
87 62 0
-87 -62 0
87 89 0
-87 -89 0
47 72 0
-47 -72 0
47 8 0
-47 -8 0
83 53 0
-83 -53 0
83 43 0
-83 -43 0
35 21 0
-35 -21 0
35 12 0
-35 -12 0
81 101 0
-81 -101 0
81 76 0
-81 -76 0
75 80 0
-75 -80 0
75 62 0
-75 -62 0
112 94 0
-112 -94 0
112 124 0
-112 -124 0
37 114 0
-37 -114 0
37 4 0
-37 -4 0
99 22 0
-99 -22 0
99 120 0
-99 -120 0
102 140 0
-102 -140 0
102 55 0
-102 -55 0
25 132 0
-25 -132 0
25 114 0
-25 -114 0
14 137 0
-14 -137 0
14 45 0
-14 -45 0
104 88 0
-104 -88 0
41 29 0
-41 -29 0
41 26 0
-41 -26 0
54 13 0
-54 -13 0
54 44 0
-54 -44 0
24 118 0
-24 -118 0
24 28 0
-24 -28 0
49 44 0
-49 -44 0
49 33 0
-49 -33 0
134 76 0
-134 -76 0
134 52 0
-134 -52 0
51 33 0
-51 -33 0
51 74 0
-51 -74 0
90 133 0
-90 -133 0
90 132 0
-90 -132 0
109 30 0
-109 -30 0
109 110 0
-109 -110 0
48 63 0
-48 -63 0
48 78 0
-48 -78 0
115 7 0
-115 -7 0
115 97 0
-115 -97 0
46 12 0
-46 -12 0
46 18 0
-46 -18 0
108 10 0
-108 -10 0
108 101 0
-108 -101 0
2 128 0
-2 -128 0
125 110 0
-125 -110 0
122 43 0
-122 -43 0
122 133 0
-122 -133 0
67 89 0
-67 -89 0
67 1 0
-67 -1 0
59 6 0
-59 -6 0
85 70 0
-85 -70 0
85 136 0
-85 -136 0
15 121 0
-15 -121 0
15 64 0
-15 -64 0
60 119 0
-60 -119 0
60 77 0
-60 -77 0
82 8 0
-82 -8 0
103 136 0
-103 -136 0
73 52 0
-73 -52 0
73 121 0
-73 -121 0
39 18 0
-39 -18 0
16 1 0
-16 -1 0
16 36 0
-16 -36 0
113 3 0
-113 -3 0
113 88 0
-113 -88 0
96 34 0
-96 -34 0
93 106 0
-93 -106 0
65 38 0
-65 -38 0
65 32 0
-65 -32 0
40 19 0
-40 -19 0
40 30 0
-40 -30 0
126 4 0
-126 -4 0
57 97 0
-57 -97 0
57 6 0
-57 -6 0
27 64 0
-27 -64 0
27 123 0
-27 -123 0
84 138 0
-84 -138 0
84 50 0
-84 -50 0
139 32 0
-139 -32 0
139 3 0
-139 -3 0
9 45 0
-9 -45 0
9 19 0
-9 -19 0
20 135 0
-20 -135 0
20 53 0
-20 -53 0
111 131 0
-111 -131 0
111 7 0
-111 -7 0
23 68 0
-23 -68 0
23 42 0
-23 -42 0
129 123 0
-129 -123 0
129 138 0
-129 -138 0
61 17 0
-61 -17 0
61 92 0
-61 -92 0
69 26 0
-69 -26 0
69 128 0
-69 -128 0
5 124 0
-5 -124 0
56 120 0
-56 -120 0
56 135 0
-56 -135 0
31 28 0
-31 -28 0
31 63 0
-31 -63 0
117 107 0
-117 -107 0
117 22 0
-117 -22 0
127 50 0
-127 -50 0
116 42 0
-116 -42 0
116 10 0
-116 -10 0
58 55 0
-58 -55 0
58 137 0
-58 -137 0
95 11 0
-95 -11 0
100 78 0
-100 -78 0
100 131 0
-100 -131 0
98 36 0
-98 -36 0
79 74 0
-79 -74 0
66 92 0
-66 -92 0
66 34 0
-66 -34 0
71 86 0
-71 -86 0
71 38 0
-71 -38 0
91 77 0
-91 -77 0
91 11 0
-91 -11 0
105 130 0
-105 -130 0
105 70 0
-105 -70 0
26 55 0
-26 -55 0
90 114 0
-90 -114 0
23 30 0
-23 -30 0
52 3 0
-52 -3 0
60 94 0
-60 -94 0
15 74 0
-15 -74 0
85 82 0
-85 -82 0
139 34 0
-139 -34 0
75 120 0
-75 -120 0
125 133 0
-125 -133 0
108 80 0
-108 -80 0
35 28 0
-35 -28 0
6 4 0
-6 -4 0
94 74 0
-94 -74 0
94 63 0
-94 -63 0
75 78 0
-75 -78 0
137 28 0
-137 -28 0
71 76 0
-71 -76 0
101 12 0
-101 -12 0
122 6 0
-122 -6 0
54 72 0
-54 -72 0
100 105 0
-100 -105 0
96 136 0
-96 -136 0
8 124 0
-8 -124 0
109 32 0
-109 -32 0
60 45 0
-60 -45 0
47 22 0
-47 -22 0
59 22 0
-59 -22 0
82 61 0
-82 -61 0
82 88 0
-82 -88 0
90 1 0
-90 -1 0
112 60 0
-112 -60 0
51 15 0
-51 -15 0
15 73 0
-15 -73 0
128 50 0
-128 -50 0
90 66 0
-90 -66 0
140 33 0
-140 -33 0
23 69 0
-23 -69 0
53 132 0
-53 -132 0
21 78 0
-21 -78 0
122 38 0
-122 -38 0
15 98 0
-15 -98 0
129 6 0
-129 -6 0
46 1 0
-46 -1 0
8 107 0
-8 -107 0
31 45 0
-31 -45 0
80 32 0
-80 -32 0
126 131 0
-126 -131 0
106 130 0
-106 -130 0
8 36 0
-8 -36 0
115 62 0
-115 -62 0
93 70 0
-93 -70 0
33 45 0
-33 -45 0
83 30 0
-83 -30 0
99 27 0
-99 -27 0
31 36 0
-31 -36 0
101 64 0
-101 -64 0
51 16 0
-51 -16 0
63 50 0
-63 -50 0
40 132 0
-40 -132 0
138 26 0
-138 -26 0
47 36 0
-47 -36 0
47 125 0
-47 -125 0
16 101 0
-16 -101 0
84 17 0
-84 -17 0
121 4 0
-121 -4 0
24 52 0
-24 -52 0
25 126 0
-25 -126 0
99 46 0
-99 -46 0
90 30 0
-90 -30 0
122 140 0
-122 -140 0
129 132 0
-129 -132 0
113 50 0
-113 -50 0
81 129 0
-81 -129 0
83 36 0
-83 -36 0
105 53 0
-105 -53 0
98 128 0
-98 -128 0
35 66 0
-35 -66 0
115 125 0
-115 -125 0
139 18 0
-139 -18 0
75 93 0
-75 -93 0
104 64 0
-104 -64 0
51 44 0
-51 -44 0
51 140 0
-51 -140 0
112 97 0
-112 -97 0
59 12 0
-59 -12 0
5 117 0
-5 -117 0
39 128 0
-39 -128 0
93 72 0
-93 -72 0
94 38 0
-94 -38 0
85 71 0
-85 -71 0
85 120 0
-85 -120 0
56 4 0
-56 -4 0
40 121 0
-40 -121 0
90 74 0
-90 -74 0
58 68 0
-58 -68 0
48 127 0
-48 -127 0
81 10 0
-81 -10 0
15 105 0
-15 -105 0
71 55 0
-71 -55 0
15 62 0
-15 -62 0
49 111 0
-49 -111 0
115 128 0
-115 -128 0
115 120 0
-115 -120 0
29 8 0
-29 -8 0
118 63 0
-118 -63 0
59 15 0
-59 -15 0
129 19 0
-129 -19 0
133 64 0
-133 -64 0
115 66 0
-115 -66 0
24 67 0
-24 -67 0
103 88 0
-103 -88 0
83 56 0
-83 -56 0
23 18 0
-23 -18 0
125 101 0
-125 -101 0
14 94 0
-14 -94 0
86 130 0
-86 -130 0
103 128 0
-103 -128 0
33 63 0
-33 -63 0
56 123 0
-56 -123 0
129 110 0
-129 -110 0
76 8 0
-76 -8 0
139 8 0
-139 -8 0
13 45 0
-13 -45 0
27 44 0
-27 -44 0
47 65 0
-47 -65 0
95 33 0
-95 -33 0
114 128 0
-114 -128 0
46 50 0
-46 -50 0
37 6 0
-37 -6 0
37 127 0
-37 -127 0
137 68 0
-137 -68 0
58 12 0
-58 -12 0
81 44 0
-81 -44 0
81 41 0
-81 -41 0
112 129 0
-112 -129 0
40 68 0
-40 -68 0
76 18 0
-76 -18 0
102 61 0
-102 -61 0
80 12 0
-80 -12 0
60 56 0
-60 -56 0
47 23 0
-47 -23 0
24 46 0
-24 -46 0
61 21 0
-61 -21 0
31 43 0
-31 -43 0
85 116 0
-85 -116 0
7 64 0
-7 -64 0
128 74 0
-128 -74 0
30 68 0
-30 -68 0
22 74 0
-22 -74 0
81 121 0
-81 -121 0
132 119 0
-132 -119 0
136 38 0
-136 -38 0
109 121 0
-109 -121 0
29 45 0
-29 -45 0
46 122 0
-46 -122 0
79 13 0
-79 -13 0
99 17 0
-99 -17 0
15 42 0
-15 -42 0
81 95 0
-81 -95 0
117 29 0
-117 -29 0
48 86 0
-48 -86 0
104 90 0
-104 -90 0
84 116 0
-84 -116 0
87 96 0
-87 -96 0
126 44 0
-126 -44 0
126 53 0
-126 -53 0
114 28 0
-114 -28 0
63 43 0
-63 -43 0
125 68 0
-125 -68 0
49 60 0
-49 -60 0
80 28 0
-80 -28 0
65 3 0
-65 -3 0
46 84 0
-46 -84 0
96 12 0
-96 -12 0
57 69 0
-57 -69 0
109 73 0
-109 -73 0
11 78 0
-11 -78 0
133 135 0
-133 -135 0
79 80 0
-79 -80 0
81 56 0
-81 -56 0
81 94 0
-81 -94 0
127 94 0
-127 -94 0
136 106 0
-136 -106 0
60 84 0
-60 -84 0
79 68 0
-79 -68 0
128 130 0
-128 -130 0
37 85 0
-37 -85 0
102 106 0
-102 -106 0
54 136 0
-54 -136 0
85 92 0
-85 -92 0
71 88 0
-71 -88 0
87 116 0
-87 -116 0
49 19 0
-49 -19 0
43 64 0
-43 -64 0
67 94 0
-67 -94 0
69 135 0
-69 -135 0
53 97 0
-53 -97 0
73 70 0
-73 -70 0
22 28 0
-22 -28 0
40 6 0
-40 -6 0
4 50 0
-4 -50 0
38 28 0
-38 -28 0
5 107 0
-5 -107 0
45 26 0
-45 -26 0
59 76 0
-59 -76 0
118 138 0
-118 -138 0
48 96 0
-48 -96 0
104 131 0
-104 -131 0
111 114 0
-111 -114 0
84 31 0
-84 -31 0
102 80 0
-102 -80 0
99 11 0
-99 -11 0
108 7 0
-108 -7 0
16 121 0
-16 -121 0
80 64 0
-80 -64 0
139 9 0
-139 -9 0
122 105 0
-122 -105 0
41 39 0
-41 -39 0
60 8 0
-60 -8 0
27 127 0
-27 -127 0
122 56 0
-122 -56 0
102 86 0
-102 -86 0
15 140 0
-15 -140 0
100 62 0
-100 -62 0
24 21 0
-24 -21 0
129 5 0
-129 -5 0
75 53 0
-75 -53 0
69 137 0
-69 -137 0
75 58 0
-75 -58 0
81 29 0
-81 -29 0
9 11 0
-9 -11 0
85 131 0
-85 -131 0
3 78 0
-3 -78 0
27 7 0
-27 -7 0
72 3 0
-72 -3 0
118 42 0
-118 -42 0
125 15 0
-125 -15 0
40 101 0
-40 -101 0
75 11 0
-75 -11 0
60 131 0
-60 -131 0
21 33 0
-21 -33 0
115 36 0
-115 -36 0
94 55 0
-94 -55 0
82 105 0
-82 -105 0
112 18 0
-112 -18 0
61 68 0
-61 -68 0
54 61 0
-54 -61 0
103 124 0
-103 -124 0
58 13 0
-58 -13 0
140 77 0
-140 -77 0
65 110 0
-65 -110 0
102 96 0
-102 -96 0
61 86 0
-61 -86 0
70 119 0
-70 -119 0
35 128 0
-35 -128 0
111 69 0
-111 -69 0
115 39 0
-115 -39 0
2 62 0
-2 -62 0
31 131 0
-31 -131 0
108 44 0
-108 -44 0
104 33 0
-104 -33 0
111 120 0
-111 -120 0
73 23 0
-73 -23 0
24 119 0
-24 -119 0
53 12 0
-53 -12 0
49 59 0
-49 -59 0
48 97 0
-48 -97 0
85 6 0
-85 -6 0
132 137 0
-132 -137 0
85 8 0
-85 -8 0
112 22 0
-112 -22 0
67 120 0
-67 -120 0
79 91 0
-79 -91 0
128 17 0
-128 -17 0
133 10 0
-133 -10 0
94 88 0
-94 -88 0
110 28 0
-110 -28 0
40 42 0
-40 -42 0
30 86 0
-30 -86 0
122 73 0
-122 -73 0
5 11 0
-5 -11 0
51 100 0
-51 -100 0
82 58 0
-82 -58 0
100 1 0
-100 -1 0
23 77 0
-23 -77 0
105 30 0
-105 -30 0
103 101 0
-103 -101 0
19 124 0
-19 -124 0
67 126 0
-67 -126 0
9 66 0
-9 -66 0
65 21 0
-65 -21 0
140 123 0
-140 -123 0
103 38 0
-103 -38 0
51 63 0
-51 -63 0
81 64 0
-81 -64 0
134 103 0
-134 -103 0
44 42 0
-44 -42 0
37 14 0
-37 -14 0
35 84 0
-35 -84 0
6 42 0
-6 -42 0
87 45 0
-87 -45 0
117 105 0
-117 -105 0
8 97 0
-8 -97 0
25 129 0
-25 -129 0
73 63 0
-73 -63 0
41 31 0
-41 -31 0
109 66 0
-109 -66 0
125 13 0
-125 -13 0
39 68 0
-39 -68 0
76 92 0
-76 -92 0
20 130 0
-20 -130 0
134 136 0
-134 -136 0
10 52 0
-10 -52 0
95 63 0
-95 -63 0
25 85 0
-25 -85 0
81 46 0
-81 -46 0
109 44 0
-109 -44 0
58 7 0
-58 -7 0
72 11 0
-72 -11 0
58 1 0
-58 -1 0
102 33 0
-102 -33 0
84 127 0
-84 -127 0
93 18 0
-93 -18 0
87 49 0
-87 -49 0
75 54 0
-75 -54 0
125 123 0
-125 -123 0
14 10 0
-14 -10 0
80 123 0
-80 -123 0
111 50 0
-111 -50 0
90 92 0
-90 -92 0
67 65 0
-67 -65 0
132 68 0
-132 -68 0
58 79 0
-58 -79 0
118 106 0
-118 -106 0
110 136 0
-110 -136 0
94 64 0
-94 -64 0
46 3 0
-46 -3 0
75 68 0
-75 -68 0
82 124 0
-82 -124 0
63 107 0
-63 -107 0
73 7 0
-73 -7 0
98 94 0
-98 -94 0
115 45 0
-115 -45 0
49 77 0
-49 -77 0
103 30 0
-103 -30 0
49 121 0
-49 -121 0
25 105 0
-25 -105 0
25 17 0
-25 -17 0
117 100 0
-117 -100 0
74 92 0
-74 -92 0
17 74 0
-17 -74 0
125 9 0
-125 -9 0
11 86 0
-11 -86 0
34 120 0
-34 -120 0
61 117 0
-61 -117 0
134 44 0
-134 -44 0
94 86 0
-94 -86 0
139 69 0
-139 -69 0
79 21 0
-79 -21 0
126 22 0
-126 -22 0
20 34 0
-20 -34 0
2 12 0
-2 -12 0
13 130 0
-13 -130 0
96 124 0
-96 -124 0
2 56 0
-2 -56 0
119 120 0
-119 -120 0
100 106 0
-100 -106 0
38 130 0
-38 -130 0
69 32 0
-69 -32 0
61 7 0
-61 -7 0
31 22 0
-31 -22 0
49 73 0
-49 -73 0
51 67 0
-51 -67 0
62 28 0
-62 -28 0
139 91 0
-139 -91 0
95 91 0
-95 -91 0
41 92 0
-41 -92 0
2 100 0
-2 -100 0
112 49 0
-112 -49 0
112 17 0
-112 -17 0
134 74 0
-134 -74 0
27 121 0
-27 -121 0
129 80 0
-129 -80 0
1 26 0
-1 -26 0
117 121 0
-117 -121 0
91 123 0
-91 -123 0
73 113 0
-73 -113 0
87 30 0
-87 -30 0
108 126 0
-108 -126 0
25 55 0
-25 -55 0
99 59 0
-99 -59 0
5 4 0
-5 -4 0
25 120 0
-25 -120 0
44 106 0
-44 -106 0
5 100 0
-5 -100 0
126 55 0
-126 -55 0
96 68 0
-96 -68 0
83 21 0
-83 -21 0
49 64 0
-49 -64 0
29 133 0
-29 -133 0
81 128 0
-81 -128 0
114 120 0
-114 -120 0
48 138 0
-48 -138 0
127 52 0
-127 -52 0
49 62 0
-49 -62 0
56 8 0
-56 -8 0
57 106 0
-57 -106 0
57 78 0
-57 -78 0
24 60 0
-24 -60 0
113 38 0
-113 -38 0
56 107 0
-56 -107 0
48 103 0
-48 -103 0
113 79 0
-113 -79 0
20 1 0
-20 -1 0
121 36 0
-121 -36 0
106 17 0
-106 -17 0
16 28 0
-16 -28 0
60 114 0
-60 -114 0
49 138 0
-49 -138 0
67 140 0
-67 -140 0
43 121 0
-43 -121 0
111 5 0
-111 -5 0
61 72 0
-61 -72 0
56 43 0
-56 -43 0
37 109 0
-37 -109 0
98 63 0
-98 -63 0
48 140 0
-48 -140 0
67 119 0
-67 -119 0
13 17 0
-13 -17 0
106 92 0
-106 -92 0
137 107 0
-137 -107 0
96 77 0
-96 -77 0
119 1 0
-119 -1 0
37 77 0
-37 -77 0
65 1 0
-65 -1 0
2 111 0
-2 -111 0
62 80 0
-62 -80 0
48 62 0
-48 -62 0
60 73 0
-60 -73 0
98 107 0
-98 -107 0
113 127 0
-113 -127 0
57 52 0
-57 -52 0
122 137 0
-122 -137 0
26 92 0
-26 -92 0
75 106 0
-75 -106 0
87 24 0
-87 -24 0
35 76 0
-35 -76 0
59 45 0
-59 -45 0
66 32 0
-66 -32 0
2 42 0
-2 -42 0
118 131 0
-118 -131 0
98 18 0
-98 -18 0
34 78 0
-34 -78 0
101 63 0
-101 -63 0
17 36 0
-17 -36 0
23 62 0
-23 -62 0
125 96 0
-125 -96 0
2 140 0
-2 -140 0
49 13 0
-49 -13 0
84 86 0
-84 -86 0
104 56 0
-104 -56 0
45 50 0
-45 -50 0
96 100 0
-96 -100 0
46 127 0
-46 -127 0
66 4 0
-66 -4 0
44 136 0
-44 -136 0
67 128 0
-67 -128 0
15 116 0
-15 -116 0
38 11 0
-38 -11 0
41 136 0
-41 -136 0
58 17 0
-58 -17 0
122 82 0
-122 -82 0
112 10 0
-112 -10 0
137 88 0
-137 -88 0
94 89 0
-94 -89 0
71 110 0
-71 -110 0
104 78 0
-104 -78 0
72 4 0
-72 -4 0
57 133 0
-57 -133 0
91 140 0
-91 -140 0
136 131 0
-136 -131 0
40 23 0
-40 -23 0
112 99 0
-112 -99 0
43 42 0
-43 -42 0
31 50 0
-31 -50 0
140 29 0
-140 -29 0
80 78 0
-80 -78 0
80 131 0
-80 -131 0
43 89 0
-43 -89 0
133 120 0
-133 -120 0
75 138 0
-75 -138 0
57 132 0
-57 -132 0
115 91 0
-115 -91 0
107 86 0
-107 -86 0
112 127 0
-112 -127 0
108 123 0
-108 -123 0
122 67 0
-122 -67 0
98 29 0
-98 -29 0
23 10 0
-23 -10 0
99 43 0
-99 -43 0
15 124 0
-15 -124 0
66 110 0
-66 -110 0
47 133 0
-47 -133 0
